sat
(:max-memory          18.17
 :memory              18.00
 :nlsat-conflicts     2
 :nlsat-learned-added 2
 :nlsat-propagations  19
 :nlsat-stages        8
 :num-allocs          7045
 :rlimit-count        3808
 :time                0.00
 :total-time          0.02)
